NAME: rue_20_9
TYPE: TSP
DIMENSION: 20
EDGE_WEIGHT_TYPE: EUC_2D
NODE_COORD_SECTION
1 92 11
2 30 96
3 32 13
4 68 5
5 40 27
6 69 10
7 59 49
8 38 71
9 19 76
10 75 81
11 97 80
12 52 31
13 31 98
14 81 15
15 19 32
16 78 67
17 83 3
18 10 41
19 1 88
20 1 29
